Route #1: 18 10 39
Route #2: 19 97 27
Route #3: 32 33 53 73 95 24
Route #4: 34 64 96 48 26 47 38
Route #5: 17 8
Route #6: 68 90 84 66
Route #7: 83 51 81
Route #8: 30 85 11 79
Route #9: 93 75
Route #10: 28 42 78 65 25
Route #11: 89 98 99 62 71
Route #12: 80 94 56 21
Route #13: 63 77 3
Route #14: 82 60 59
Route #15: 57 72 36 29 43 45 2 7
Route #16: 74 13 4
Route #17: 69 16 55 76
Route #18: 14 49 6 37 87
Route #19: 23 61 100
Route #20: 50 91 52
Route #21: 92 9 86
Route #22: 15 22 41 20
Route #23: 35 46 31
Route #24: 40 67 88 44
Route #25: 1 70 54
Route #26: 58 12 5
Cost 27591.0000
Time 16.0010